NAME : census.standard.0.tour
COMMENT : Length = 0
TYPE : TOUR
DIMENSION : 68
TOUR_SECTION
1
63
54
37
8
66
6
39
47
34
27
9
67
49
25
62
2
14
15
29
31
56
7
10
21
13
11
22
20
16
24
58
26
57
4
65
30
36
55
48
18
28
17
43
42
12
61
44
19
51
23
46
40
60
5
68
45
53
38
59
41
64
52
33
32
50
35
3
-1
EOF
